c A SAT instance generated from a 3-CNF formula that had 30 clauses and 10 variables
p cnf 10 30
4 -2 10 0
6 -5 -7 0
2 6 -10 0
4 3 1 0
-8 7 -2 0
9 10 -3 0
9 4 3 0
-4 -3 -8 0
-1 -9 -10 0
-4 -5 -3 0
-10 6 7 0
3 -2 4 0
9 -6 5 0
-7 5 -8 0
-7 10 -2 0
6 5 -9 0
1 -3 -7 0
10 -1 -9 0
9 -6 2 0
-1 8 3 0
7 9 10 0
-7 -4 -10 0
9 7 1 0
9 -2 8 0
-2 -6 7 0
-6 -2 -1 0
-9 -10 7 0
-5 -8 3 0
-6 -8 -9 0
3 4 2 0
